************************************************************************
file with basedata            : md354_.bas
initial value random generator: 937719789
************************************************************************
projects                      :  1
jobs (incl. supersource/sink ):  22
horizon                       :  159
RESOURCES
  - renewable                 :  2   R
  - nonrenewable              :  2   N
  - doubly constrained        :  0   D
************************************************************************
PROJECT INFORMATION:
pronr.  #jobs rel.date duedate tardcost  MPM-Time
    1     20      0       26        5       26
************************************************************************
PRECEDENCE RELATIONS:
jobnr.    #modes  #successors   successors
   1        1          3           2   3   4
   2        3          2          12  18
   3        3          3           5   7  13
   4        3          3           6   9  13
   5        3          2          11  14
   6        3          3           8  15  16
   7        3          3          11  16  19
   8        3          1          10
   9        3          3          11  14  19
  10        3          2          17  21
  11        3          2          15  17
  12        3          2          13  17
  13        3          1          19
  14        3          1          16
  15        3          2          18  20
  16        3          2          18  20
  17        3          1          20
  18        3          1          21
  19        3          1          22
  20        3          1          22
  21        3          1          22
  22        1          0        
************************************************************************
REQUESTS/DURATIONS:
jobnr. mode duration  R 1  R 2  N 1  N 2
------------------------------------------------------------------------
  1      1     0       0    0    0    0
  2      1     1       0    9    5    4
         2     2       6    0    5    3
         3     4       6    0    4    3
  3      1     1       0    9    7    3
         2     2       0    9    7    2
         3     9       6    0    6    1
  4      1     6       0    5    8   10
         2     6       9    0    8   10
         3     9       0    9    5   10
  5      1     9       0    4    9    2
         2     9       4    0    9    2
         3    10       3    0    8    2
  6      1     1       0    7    6    5
         2     2       0    5    6    5
         3     6       0    2    5    5
  7      1     2       0    7    9    8
         2     3       0    7    5    4
         3     4       0    6    4    1
  8      1     8       7    0    9    9
         2     9       0    1    6    6
         3    10       5    0    4    6
  9      1     3       7    0    9    9
         2     3       0    4    8    9
         3     4       8    0    6    9
 10      1     1       0    8    8    3
         2     3       8    0    7    2
         3     7       7    0    5    1
 11      1     5      10    0    4    9
         2     7       3    0    3    8
         3     9       0    9    2    4
 12      1     3       6    0    3    6
         2     5       3    0    2    4
         3    10       0    3    2    2
 13      1     3       0    8    6    5
         2     8       0    6    5    4
         3     9       4    0    3    3
 14      1     7       9    0   10    8
         2     8       0    7   10    6
         3     9       9    0    9    5
 15      1     5       3    0    4    4
         2     5       0    5    3    4
         3     9       3    0    2    4
 16      1     1       8    0    3    8
         2     3       8    0    3    4
         3     9       6    0    2    1
 17      1     1       3    0    8    9
         2     3       2    0    8    8
         3     5       0    4    7    8
 18      1     4       4    0    5    8
         2     9       1    0    4    8
         3    10       0    5    2    7
 19      1     7       7    0    5    5
         2     8       4    0    4    4
         3    10       0    5    3    3
 20      1     1       8    0    4    9
         2     2       6    0    2    8
         3     6       5    0    2    7
 21      1     2       0    3    5    4
         2     8       5    0    3    2
         3    10       5    0    1    1
 22      1     0       0    0    0    0
************************************************************************
RESOURCEAVAILABILITIES:
  R 1  R 2  N 1  N 2
   16   18   93   94
************************************************************************
MAXIMAL LAGS:
from  to  type  delay
    1   22   ES      0
    1    2   ES      0
    2   22   ES      0
    1    3   ES      0
    3   22   ES      0
    1    4   ES      0
    4   22   ES      0
    1    5   ES      0
    5   22   ES      0
    1    6   ES      0
    6   22   ES      0
    1    7   ES      0
    7   22   ES      0
    1    8   ES      0
    8   22   ES      0
    1    9   ES      0
    9   22   ES      0
    1   10   ES      0
   10   22   ES      0
    1   11   ES      0
   11   22   ES      0
    1   12   ES      0
   12   22   ES      0
    1   13   ES      0
   13   22   ES      0
    1   14   ES      0
   14   22   ES      0
    1   15   ES      0
   15   22   ES      0
    1   16   ES      0
   16   22   ES      0
    1   17   ES      0
   17   22   ES      0
    1   18   ES      0
   18   22   ES      0
    1   19   ES      0
   19   22   ES      0
    1   20   ES      0
   20   22   ES      0
    1   21   ES      0
   21   22   ES      0
    1   22   ES      0
    2   12   SS      9
    2   12   SE     11
    2   12   ES      8
    2   12   EE    -10
    2   18   SS      1
    2   18   SE      3
    2   18   ES     -9
    2   18   EE     -2
    3    5   SS      1
    3    5   SE    -11
    3    5   ES     -1
    3    5   EE      4
    3    7   SS      2
    3    7   SE      6
    3    7   ES    -11
    3    7   EE     -1
    3   13   SS     -8
    3   13   SE     -7
    3   13   ES     -4
    3   13   EE     -3
    4    6   SS    -10
    4    6   SE     -6
    4    6   ES     -5
    4    6   EE      6
    4    9   SS     -2
    4    9   SE     -3
    4    9   ES      2
    4    9   EE      6
    4   13   SS     -4
    4   13   SE    -11
    4   13   ES     10
    4   13   EE      0
    5   11   SS     -4
    5   11   SE     11
    5   11   ES     11
    5   11   EE     -1
    5   14   SS     -6
    5   14   SE     -9
    5   14   ES      9
    5   14   EE     -2
    6    8   SS     10
    6    8   SE      2
    6    8   ES      6
    6    8   EE    -11
    6   15   SS     -2
    6   15   SE     11
    6   15   ES      2
    6   15   EE     -9
    6   16   SS      6
    6   16   SE     11
    6   16   ES    -10
    6   16   EE     12
    7   11   SS      8
    7   11   SE      4
    7   11   ES      8
    7   11   EE      6
    7   16   SS      5
    7   16   SE      0
    7   16   ES      1
    7   16   EE     11
    7   19   SS     -3
    7   19   SE     10
   19    7   SE      0
    7   19   ES      0
    7   19   EE      6
    8   10   SS     -6
    8   10   SE      1
    8   10   ES     -2
    8   10   EE      0
    9   11   SS     -9
    9   11   SE      5
    9   11   ES     -5
    9   11   EE     -6
    9   14   SS     -2
    9   14   SE     10
    9   14   ES      7
    9   14   EE      3
    9   19   SS     -4
    9   19   SE      8
    9   19   ES      9
    9   19   EE      5
   10   17   SS      2
   10   17   SE      0
   10   17   ES      5
   10   17   EE    -12
   10   21   SS     -1
   10   21   SE      9
   10   21   ES      2
   10   21   EE    -11
   11   15   SS     12
   11   15   SE     -7
   11   15   ES     -5
   11   15   EE     11
   11   17   SS     10
   11   17   SE      3
   11   17   ES      3
   11   17   EE     11
   12   13   SS    -10
   12   13   SE      5
   12   13   ES     -4
   12   13   EE     -5
   12   17   SS    -12
   12   17   SE      8
   12   17   ES     -9
   12   17   EE      6
   13   19   SS     -7
   13   19   SE     -7
   13   19   ES    -12
   13   19   EE      7
   14   16   SS     -1
   14   16   SE      1
   14   16   ES      3
   14   16   EE     -5
   15   18   SS     -6
   15   18   SE     -6
   15   18   ES     -8
   15   18   EE     10
   15   20   SS     10
   15   20   SE      7
   15   20   ES     10
   15   20   EE      3
   16   18   SS     -6
   16   18   SE      9
   16   18   ES     -8
   16   18   EE     -6
   16   20   SS      6
   16   20   SE      0
   16   20   ES     -3
   16   20   EE     -4
   17   20   SS    -11
   17   20   SE     -7
   17   20   ES      5
   17   20   EE     -8
   18   21   SS     -2
   18   21   SE     -5
   18   21   ES     12
   18   21   EE     -7
************************************************************************
